language ESSENCE' 1.0
letting shiftRequirements = [[4, 1, 19, 4], [4, 1, 19, 4], [4, 1, 2, 21], [4, 1, 2, 21], [1, 1, 2, 24], [23, 1, 1, 3], [23, 1, 1, 3]]
letting numberOfWeeks = 28
letting s_min = 2
letting s_max = 3
